NAME: random-86-4408
TYPE: TSP
COMMENT: size=86 seed=4408
DIMENSION: 174
EDGE_WEIGHT_TYPE: EUC_2D
NODE_COORD_SECTION
+0 256 979
-0 256 979
+1 284 621
-1 23 400
+2 466 632
-2 90 337
+3 422 792
-3 651 126
+4 590 81
-4 290 478
+5 144 483
-5 660 709
+6 817 330
-6 357 770
+7 977 450
-7 812 735
+8 964 713
-8 612 702
+9 596 694
-9 136 298
+10 600 19
-10 649 48
+11 343 920
-11 776 475
+12 458 475
-12 842 489
+13 808 635
-13 343 669
+14 424 436
-14 711 322
+15 987 447
-15 67 110
+16 5 505
-16 685 311
+17 505 389
-17 655 877
+18 93 188
-18 175 703
+19 595 348
-19 68 387
+20 17 208
-20 989 410
+21 867 135
-21 325 373
+22 973 932
-22 235 734
+23 131 342
-23 381 265
+24 176 773
-24 715 95
+25 312 862
-25 266 282
+26 877 271
-26 777 161
+27 267 373
-27 955 442
+28 692 278
-28 242 567
+29 448 553
-29 894 718
+30 633 386
-30 941 842
+31 814 128
-31 406 361
+32 789 343
-32 213 442
+33 142 675
-33 36 245
+34 866 946
-34 332 239
+35 873 531
-35 307 765
+36 230 73
-36 745 2
+37 863 457
-37 461 292
+38 675 792
-38 903 853
+39 886 190
-39 460 675
+40 660 748
-40 452 95
+41 229 174
-41 400 330
+42 456 96
-42 242 511
+43 422 146
-43 841 50
+44 995 907
-44 740 494
+45 700 65
-45 421 330
+46 592 724
-46 603 198
+47 190 642
-47 933 134
+48 918 179
-48 843 933
+49 265 5
-49 440 171
+50 613 895
-50 647 639
+51 792 595
-51 232 715
+52 567 201
-52 950 815
+53 67 928
-53 439 450
+54 401 58
-54 445 652
+55 145 986
-55 786 919
+56 768 827
-56 471 166
+57 135 928
-57 824 299
+58 493 861
-58 745 345
+59 406 118
-59 767 356
+60 845 754
-60 20 363
+61 881 812
-61 420 45
+62 579 796
-62 58 363
+63 688 494
-63 926 265
+64 648 895
-64 760 870
+65 724 356
-65 520 520
+66 583 559
-66 558 253
+67 717 49
-67 877 328
+68 54 106
-68 115 532
+69 56 847
-69 686 979
+70 23 393
-70 317 78
+71 107 837
-71 337 35
+72 321 179
-72 75 967
+73 586 13
-73 613 800
+74 735 717
-74 444 367
+75 981 646
-75 743 904
+76 744 660
-76 960 245
+77 180 885
-77 673 871
+78 929 631
-78 533 122
+79 46 424
-79 291 735
+80 304 958
-80 985 504
+81 148 33
-81 521 352
+82 547 251
-82 732 927
+83 212 89
-83 305 877
+84 175 112
-84 357 383
+85 73 780
-85 185 251
+86 137 996
-86 590 640
PRECEDENCE_SECTION
+0 -0
+1 -1
+2 -2
+3 -3
+4 -4
+5 -5
+6 -6
+7 -7
+8 -8
+9 -9
+10 -10
+11 -11
+12 -12
+13 -13
+14 -14
+15 -15
+16 -16
+17 -17
+18 -18
+19 -19
+20 -20
+21 -21
+22 -22
+23 -23
+24 -24
+25 -25
+26 -26
+27 -27
+28 -28
+29 -29
+30 -30
+31 -31
+32 -32
+33 -33
+34 -34
+35 -35
+36 -36
+37 -37
+38 -38
+39 -39
+40 -40
+41 -41
+42 -42
+43 -43
+44 -44
+45 -45
+46 -46
+47 -47
+48 -48
+49 -49
+50 -50
+51 -51
+52 -52
+53 -53
+54 -54
+55 -55
+56 -56
+57 -57
+58 -58
+59 -59
+60 -60
+61 -61
+62 -62
+63 -63
+64 -64
+65 -65
+66 -66
+67 -67
+68 -68
+69 -69
+70 -70
+71 -71
+72 -72
+73 -73
+74 -74
+75 -75
+76 -76
+77 -77
+78 -78
+79 -79
+80 -80
+81 -81
+82 -82
+83 -83
+84 -84
+85 -85
+86 -86
EOF
